500
500
349
348
348
347
347
347
347
347
347
345
345
345
344
344
343
342
342
341
341
341
340
340
339
339
339
339
339
338
338
338
337
337
337
337
336
335
334
334
334
333
333
333
332
332
332
331
329
329
329
329
328
327
327
326
326
326
325
324
323
322
322
321
320
320
320
319
318
318
318
318
316
316
315
314
313
313
313
312
312
311
311
310
310
307
307
306
306
306
304
303
302
299
297
297
296
295
293
292
292
292
291
291
291
291
291
290
290
290
289
289
288
288
288
287
286
285
284
284
283
283
282
281
281
281
280
278
278
277
276
275
274
274
274
273
271
270
270
269
268
267
266
266
264
264
263
262
262
261
260
260
259
258
258
258
257
257
256
255
255
255
255
253
252
252
252
252
251
251
250
250
249
248
247
247
247
246
246
242
242
241
241
240
237
236
235
234
233
232
232
232
232
232
231
231
231
231
230
229
228
227
227
226
225
225
224
223
221
221
220
220
219
218
218
217
217
216
215
215
213
213
212
211
210
210
209
208
208
208
207
207
206
204
204
203
203
202
202
201
200
200
200
199
198
198
196
193
193
192
192
191
190
190
189
189
189
188
188
188
186
186
185
183
183
183
183
182
182
182
181
180
180
180
178
178
177
177
177
176
176
175
175
174
174
172
172
171
171
170
169
169
169
168
167
166
165
165
165
164
164
163
163
162
162
161
160
160
158
158
156
155
153
152
152
152
151
151
149
149
148
147
146
146
146
146
145
144
144
143
142
140
140
140
139
139
139
139
138
137
137
137
137
137
136
135
135
134
134
134
134
133
131
131
129
129
129
128
128
128
127
127
127
126
126
125
124
123
123
122
121
120
120
119
118
115
115
114
114
113
112
112
112
111
109
109
109
108
108
107
106
105
105
104
103
103
102
102
101
100
100
100
99
98
97
97
96
96
95
95
95
93
91
90
90
89
89
89
89
88
88
88
87
86
84
84
84
83
83
83
83
82
82
81
81
80
80
79
79
78
78
78
77
76
75
74
73
73
72
71
71
71
71
71
70
69
69
68
68
67
67
67
66
66
66
65
65
64
63
62
60
60
60
60
59
59
58
58
58
57
57
57
57
57
56
56
55
54
54
54
52
52
52
52
52
52
51
50
50
50
50
50
